500
150 150
1 120 965
2 120 790
3 120 491
4 120 846
5 120 609
6 120 268
7 120 95
8 119 268
9 119 148
10 119 72
11 119 892
12 119 822
13 119 763
14 119 868
15 119 768
16 118 283
17 118 835
18 118 677
19 118 888
20 118 747
21 117 93
22 117 510
23 116 731
24 116 101
25 116 743
26 115 931
27 115 179
28 115 514
29 115 554
30 115 290
31 115 6
32 114 620
33 114 816
34 114 777
35 114 306
36 114 337
37 114 360
38 113 639
39 113 499
40 113 807
41 113 472
42 113 4
43 113 302
44 112 308
45 112 409
46 112 260
47 112 285
48 112 402
49 112 443
50 112 630
51 112 81
52 112 164
53 112 739
54 112 935
55 111 81
56 111 219
57 111 869
58 111 739
59 111 788
60 111 674
61 110 964
62 110 455
63 110 481
64 110 817
65 110 265
66 110 769
67 110 682
68 109 608
69 109 151
70 109 814
71 109 126
72 108 919
73 108 778
74 108 950
75 108 348
76 106 58
77 106 74
78 106 729
79 106 914
80 106 46
81 106 323
82 105 2
83 105 513
84 105 292
85 105 47
86 104 69
87 104 233
88 104 619
89 104 480
90 104 512
91 104 495
92 104 36
93 103 472
94 103 977
95 103 146
96 103 943
97 103 970
98 103 502
99 102 348
100 102 462
101 102 434
102 102 525
103 101 952
104 101 619
105 101 752
106 101 800
107 101 424
108 100 607
109 100 216
110 99 217
111 99 289
112 99 953
113 99 72
114 99 122
115 99 225
116 98 999
117 98 664
118 98 912
119 97 116
120 97 789
121 97 697
122 97 775
123 97 167
124 96 441
125 96 88
126 96 55
127 96 161
128 95 312
129 95 279
130 95 735
131 95 336
132 95 111
133 94 881
134 94 741
135 94 15
136 94 710
137 93 138
138 93 776
139 93 349
140 93 424
141 92 392
142 92 96
143 92 939
144 92 671
145 92 963
146 91 694
147 91 384
148 91 56
149 91 180
150 91 752
151 91 913
152 91 796
153 90 402
154 90 593
155 90 888
156 90 967
157 89 876
158 89 294
159 89 841
160 89 820
161 89 718
162 89 598
163 88 491
164 88 387
165 88 606
166 88 453
167 88 731
168 87 864
169 87 948
170 87 416
171 87 324
172 87 654
173 87 328
174 87 8
175 87 462
176 86 490
177 86 637
178 86 71
179 86 621
180 86 763
181 85 876
182 85 847
183 85 570
184 85 664
185 85 558
186 85 736
187 84 153
188 84 535
189 83 149
190 83 545
191 83 728
192 83 776
193 83 876
194 83 845
195 83 899
196 83 442
197 83 949
198 83 446
199 83 951
200 83 259
201 82 969
202 82 417
203 82 571
204 82 166
205 82 348
206 82 954
207 81 434
208 81 405
209 81 613
210 81 52
211 81 507
212 80 463
213 80 239
214 80 994
215 79 851
216 79 996
217 79 392
218 78 300
219 78 587
220 78 923
221 78 100
222 78 145
223 78 687
224 78 123
225 78 522
226 78 29
227 78 171
228 78 670
229 77 919
230 77 352
231 77 255
232 77 755
233 77 702
234 76 376
235 76 522
236 76 267
237 76 220
238 75 182
239 75 452
240 75 125
241 75 188
242 75 725
243 75 735
244 75 130
245 74 243
246 74 500
247 74 539
248 74 607
249 74 315
250 74 69
251 72 393
252 72 991
253 72 676
254 72 601
255 72 586
256 72 505
257 72 20
258 72 438
259 71 8
260 71 501
261 71 42
262 70 2
263 70 912
264 70 328
265 70 931
266 70 797
267 69 724
268 69 560
269 69 721
270 69 247
271 69 339
272 69 298
273 68 469
274 68 128
275 68 158
276 68 154
277 68 48
278 68 497
279 68 913
280 68 546
281 68 644
282 68 155
283 68 258
284 67 623
285 67 369
286 67 141
287 66 507
288 66 164
289 66 673
290 66 902
291 66 284
292 66 586
293 66 747
294 66 767
295 65 812
296 65 986
297 65 392
298 65 82
299 65 91
300 65 216
301 64 508
302 64 993
303 64 32
304 64 236
305 64 352
306 64 219
307 64 845
308 64 385
309 63 312
310 63 645
311 63 282
312 63 259
313 63 45
314 63 446
315 63 510
316 62 109
317 62 362
318 62 364
319 62 128
320 62 564
321 62 597
322 62 946
323 61 555
324 61 824
325 61 1
326 61 351
327 61 568
328 61 52
329 61 246
330 61 632
331 61 533
332 61 388
333 61 570
334 60 411
335 60 82
336 60 771
337 60 584
338 60 733
339 60 613
340 60 804
341 60 931
342 60 432
343 59 434
344 59 793
345 58 35
346 58 786
347 58 792
348 58 341
349 57 234
350 57 64
351 57 479
352 57 553
353 57 991
354 57 384
355 57 2
356 57 917
357 57 112
358 56 306
359 56 772
360 56 102
361 55 292
362 55 692
363 55 393
364 55 703
365 55 254
366 55 209
367 55 287
368 54 254
369 54 228
370 54 635
371 54 804
372 54 886
373 54 935
374 53 976
375 53 953
376 53 288
377 53 335
378 53 700
379 53 852
380 53 339
381 52 377
382 52 296
383 52 591
384 52 50
385 52 381
386 52 488
387 51 940
388 51 60
389 51 942
390 51 825
391 51 34
392 51 109
393 51 120
394 51 186
395 51 631
396 51 463
397 50 334
398 50 385
399 50 275
400 50 997
401 49 264
402 49 818
403 49 173
404 49 342
405 49 392
406 48 870
407 48 907
408 48 160
409 48 19
410 48 943
411 48 41
412 48 684
413 47 46
414 47 686
415 46 990
416 46 942
417 46 474
418 46 35
419 45 464
420 45 14
421 45 968
422 45 636
423 45 192
424 44 896
425 44 578
426 44 423
427 44 682
428 44 101
429 43 611
430 43 441
431 43 107
432 42 177
433 42 335
434 42 663
435 42 934
436 42 648
437 42 229
438 42 284
439 42 413
440 41 650
441 41 495
442 40 281
443 40 19
444 39 146
445 39 73
446 39 898
447 39 297
448 39 30
449 39 693
450 39 868
451 39 89
452 39 441
453 39 176
454 39 453
455 39 122
456 38 740
457 38 980
458 38 956
459 37 363
460 37 252
461 37 588
462 37 433
463 37 780
464 37 571
465 36 357
466 36 281
467 36 573
468 36 554
469 36 434
470 35 858
471 35 250
472 35 395
473 35 661
474 35 574
475 34 521
476 34 31
477 34 223
478 34 468
479 33 936
480 33 921
481 33 989
482 33 504
483 33 731
484 32 275
485 32 528
486 32 344
487 32 681
488 32 293
489 32 255
490 32 759
491 31 336
492 31 748
493 31 194
494 31 835
495 30 571
496 30 196
497 30 561
498 30 691
499 30 240
500 30 567
